\* Route_Selection *\
Minimize
OBJ: 20 rxnfortarget_R0_O=C1CN=C(c2ccccn2)c2cc(Br)ccc2N1
 + 2.28456718732 rxnfortarget_R10_O=C1CN=C(c2ccccn2)c2cc(Br)ccc2N1
 + 1.00262669676 rxnfortarget_R11_O=C1CN=C(c2ccccn2)c2cc(Br)ccc2N1
 + 5.52420347785 rxnfortarget_R12_O=C1CN=C(c2ccccn2)c2cc(Br)ccc2N1
 + 1.00065221659 rxnfortarget_R13_O=C1CN=C(c2ccccn2)c2cc(Br)ccc2N1
 + 1.02143085656 rxnfortarget_R14_O=C1CN=C(c2ccccn2)c2cc(Br)ccc2N1
 + 1.00430477912 rxnfortarget_R15_O=C1CN=C(c2ccccn2)c2cc(Br)ccc2N1
 + 3.15286059271 rxnfortarget_R16_O=C1CN=C(c2ccccn2)c2cc(Br)ccc2N1
 + 1.00046195132 rxnfortarget_R17_O=C1CN=C(c2ccccn2)c2cc(Br)ccc2N1
 + 20 rxnfortarget_R18_O=C1CN=C(c2ccccn2)c2cc(Br)ccc2N1
 + 20 rxnfortarget_R19_O=C1CN=C(c2ccccn2)c2cc(Br)ccc2N1
 + 20 rxnfortarget_R1_O=C1CN=C(c2ccccn2)c2cc(Br)ccc2N1
 + 20 rxnfortarget_R20_O=C1CN=C(c2ccccn2)c2cc(Br)ccc2N1
 + 1.46555448108 rxnfortarget_R21_O=C1CN=C(c2ccccn2)c2cc(Br)ccc2N1
 + 3.46969182635 rxnfortarget_R22_O=C1CN=C(c2ccccn2)c2cc(Br)ccc2N1
 + 1.00024256382 rxnfortarget_R23_O=C1CN=C(c2ccccn2)c2cc(Br)ccc2N1
 + 1.27997665393 rxnfortarget_R24_O=C1CN=C(c2ccccn2)c2cc(Br)ccc2N1
 + 1.7165864746 rxnfortarget_R25_O=C1CN=C(c2ccccn2)c2cc(Br)ccc2N1
 + 2.27311499625 rxnfortarget_R26_O=C1CN=C(c2ccccn2)c2cc(Br)ccc2N1
 + 20 rxnfortarget_R27_O=C1CN=C(c2ccccn2)c2cc(Br)ccc2N1
 + 4.82145873219 rxnfortarget_R28_O=C1CN=C(c2ccccn2)c2cc(Br)ccc2N1
 + 3.27113238347 rxnfortarget_R29_O=C1CN=C(c2ccccn2)c2cc(Br)ccc2N1
 + 1.00056074117 rxnfortarget_R2_O=C1CN=C(c2ccccn2)c2cc(Br)ccc2N1
 + 7.5451423206 rxnfortarget_R30_O=C1CN=C(c2ccccn2)c2cc(Br)ccc2N1
 + 2.0309586622 rxnfortarget_R31_O=C1CN=C(c2ccccn2)c2cc(Br)ccc2N1
 + 1.44580271532 rxnfortarget_R32_O=C1CN=C(c2ccccn2)c2cc(Br)ccc2N1
 + 1.00501478774 rxnfortarget_R33_O=C1CN=C(c2ccccn2)c2cc(Br)ccc2N1
 + 20 rxnfortarget_R34_O=C1CN=C(c2ccccn2)c2cc(Br)ccc2N1
 + 1.53840800802 rxnfortarget_R35_O=C1CN=C(c2ccccn2)c2cc(Br)ccc2N1
 + 1.00316765847 rxnfortarget_R36_O=C1CN=C(c2ccccn2)c2cc(Br)ccc2N1
 + 20 rxnfortarget_R37_O=C1CN=C(c2ccccn2)c2cc(Br)ccc2N1
 + 1.48648500888 rxnfortarget_R38_O=C1CN=C(c2ccccn2)c2cc(Br)ccc2N1
 + 1.00268252493 rxnfortarget_R39_O=C1CN=C(c2ccccn2)c2cc(Br)ccc2N1
 + 1.34847228828 rxnfortarget_R3_O=C1CN=C(c2ccccn2)c2cc(Br)ccc2N1
 + 1.09642337251 rxnfortarget_R4_O=C1CN=C(c2ccccn2)c2cc(Br)ccc2N1
 + 1.00220854929 rxnfortarget_R5_O=C1CN=C(c2ccccn2)c2cc(Br)ccc2N1
 + 20 rxnfortarget_R6_O=C1CN=C(c2ccccn2)c2cc(Br)ccc2N1
 + 1.09004443284 rxnfortarget_R7_O=C1CN=C(c2ccccn2)c2cc(Br)ccc2N1
 + 1.00183681508 rxnfortarget_R8_O=C1CN=C(c2ccccn2)c2cc(Br)ccc2N1
 + 1.00161971081 rxnfortarget_R9_O=C1CN=C(c2ccccn2)c2cc(Br)ccc2N1 + start_R0
 + start_R1 + start_R10 + start_R13 + start_R14 + start_R16 + start_R17
 + start_R18 + start_R20 + start_R22 + start_R23 + start_R24 + start_R26
 + start_R27 + start_R28 + start_R29 + start_R3 + start_R30 + start_R31
 + start_R32 + start_R4 + start_R7 + start_R9
 - 100000 target_O=C1CN=C(c2ccccn2)c2cc(Br)ccc2N1
Subject To
Flow_Through_Inter_CC(C)(C)OC(=O)NCC(=O)Nc1ccc(Br)cc1C(=O)c1ccccn1: rxnflow_R2
 - rxnflow_R3 + rxnflow_R39 = 0
Flow_Through_Inter_CCOC(=O)OC(=O)CN1C(=O)c2ccccc2C1=O: rxnflow_R20
 - rxnflow_R21 = 0
Flow_Through_Inter_NCC(=O)Nc1ccc(Br)cc1C(=O)c1ccccn1: rxnflow_R10
 + rxnflow_R12 + rxnflow_R16 + rxnflow_R22 + rxnflow_R24 + rxnflow_R29
 + rxnflow_R3 - rxnflow_R4 = 0
Flow_Through_Inter_O=C(CBr)Nc1ccc(Br)cc1C(=O)c1ccccn1: rxnflow_R11
 - rxnflow_R13 + rxnflow_R19 - rxnflow_R22 - rxnflow_R30 + rxnflow_R5
 - rxnflow_R6 + rxnflow_R7 = 0
Flow_Through_Inter_O=C(CCl)Nc1ccc(Br)cc1C(=O)c1ccccn1: - rxnflow_R12
 + rxnflow_R14 + rxnflow_R27 - rxnflow_R28 + rxnflow_R36 + rxnflow_R8
 - rxnflow_R9 = 0
Flow_Through_Inter_O=C(CI)Nc1ccc(Br)cc1C(=O)c1ccccn1: rxnflow_R28
 - rxnflow_R29 + rxnflow_R30 = 0
Flow_Through_Inter_O=C(CN1C(=O)c2ccccc2C1=O)Nc1ccc(Br)cc1C(=O)c1ccccn1:
 rxnflow_R15 - rxnflow_R16 + rxnflow_R17 + rxnflow_R21 - rxnflow_R25 = 0
Flow_Through_Inter_O=C(CNC(=O)OCc1ccccc1)Nc1ccc(Br)cc1C(=O)c1ccccn1:
 rxnflow_R23 - rxnflow_R24 + rxnflow_R33 = 0
Flow_Through_Inter__N__=_N__=NCC(=O)Nc1ccc(Br)cc1C(=O)c1ccccn1: - rxnflow_R10
 + rxnflow_R13 + rxnflow_R9 = 0
Flow_Through_Target_O=C1CN=C(c2ccccn2)c2cc(Br)ccc2N1: rxnflow_R0 + rxnflow_R1
 + rxnflow_R25 + rxnflow_R4 + rxnflow_R6
 - target_O=C1CN=C(c2ccccn2)c2cc(Br)ccc2N1 = 0
Start_CC(=O)Br_from_dummy_flow: - rxnflow_R61 + start_R31 >= 0
Start_CC(C)(C)OC(=O)NCC(=O)Cl_from_dummy_flow: - rxnflow_R38 - rxnflow_R62
 + start_R32 >= 0
Start_CC(C)(C)OC(=O)NCC(=O)O_from_dummy_flow: - rxnflow_R43 + start_R4 >= 0
Start_CCCC(=O)Cl_from_dummy_flow: - rxnflow_R53 + start_R22 >= 0
Start_CCCC(=O)OC(=O)CCl_from_dummy_flow: - rxnflow_R26 - rxnflow_R31
 - rxnflow_R55 + start_R24 >= 0
Start_CCCC(=O)_O___from_dummy_flow: - rxnflow_R56 + start_R26 >= 0
Start_CCOC(=O)CN_from_dummy_flow: - rxnflow_R40 + start_R0 >= 0
Start_CCOC(=O)Cl_from_dummy_flow: - rxnflow_R50 + start_R17 >= 0
Start_CCOC(=O)OC(=O)CBr_from_dummy_flow: - rxnflow_R18 - rxnflow_R51
 + start_R18 >= 0
Start_Nc1ccc(Br)cc1C(=O)c1ccccn1_from_dummy_flow: - rxnflow_R41 + start_R1
 >= 0
Start_O=C(Br)CBr_from_dummy_flow: - rxnflow_R42 + start_R3 >= 0
Start_O=C(Br)CCl_from_dummy_flow: - rxnflow_R35 - rxnflow_R37 - rxnflow_R60
 + start_R30 >= 0
Start_O=C(Br)CO_from_dummy_flow: - rxnflow_R34 - rxnflow_R59 + start_R29 >= 0
Start_O=C(Cl)CBr_from_dummy_flow: - rxnflow_R44 + start_R7 >= 0
Start_O=C(Cl)CCl_from_dummy_flow: - rxnflow_R46 + start_R10 >= 0
Start_O=C(Cl)CN1C(=O)c2ccccc2C1=O_from_dummy_flow: - rxnflow_R48 + start_R14
 >= 0
Start_O=C(Cl)CNC(=O)OCc1ccccc1_from_dummy_flow: - rxnflow_R32 - rxnflow_R57
 + start_R27 >= 0
Start_O=C(O)CBr_from_dummy_flow: - rxnflow_R45 + start_R9 >= 0
Start_O=C(O)CCl_from_dummy_flow: - rxnflow_R47 + start_R13 >= 0
Start_O=C(O)CN1C(=O)c2ccccc2C1=O_from_dummy_flow: - rxnflow_R49 + start_R16
 >= 0
Start_O=C(O)CNC(=O)OCc1ccccc1_from_dummy_flow: - rxnflow_R52 + start_R20 >= 0
Start_O=C(O)CO_from_dummy_flow: - rxnflow_R58 + start_R28 >= 0
Start_O=C(_O__)CCl_from_dummy_flow: - rxnflow_R54 + start_R23 >= 0
Total_flow_through_R0: rxnflow_R0
 - rxnfortarget_R0_O=C1CN=C(c2ccccn2)c2cc(Br)ccc2N1 = 0
Total_flow_through_R1: rxnflow_R1
 - rxnfortarget_R1_O=C1CN=C(c2ccccn2)c2cc(Br)ccc2N1 = 0
Total_flow_through_R10: rxnflow_R10
 - rxnfortarget_R10_O=C1CN=C(c2ccccn2)c2cc(Br)ccc2N1 = 0
Total_flow_through_R11: rxnflow_R11
 - rxnfortarget_R11_O=C1CN=C(c2ccccn2)c2cc(Br)ccc2N1 = 0
Total_flow_through_R12: rxnflow_R12
 - rxnfortarget_R12_O=C1CN=C(c2ccccn2)c2cc(Br)ccc2N1 = 0
Total_flow_through_R13: rxnflow_R13
 - rxnfortarget_R13_O=C1CN=C(c2ccccn2)c2cc(Br)ccc2N1 = 0
Total_flow_through_R14: rxnflow_R14
 - rxnfortarget_R14_O=C1CN=C(c2ccccn2)c2cc(Br)ccc2N1 = 0
Total_flow_through_R15: rxnflow_R15
 - rxnfortarget_R15_O=C1CN=C(c2ccccn2)c2cc(Br)ccc2N1 = 0
Total_flow_through_R16: rxnflow_R16
 - rxnfortarget_R16_O=C1CN=C(c2ccccn2)c2cc(Br)ccc2N1 = 0
Total_flow_through_R17: rxnflow_R17
 - rxnfortarget_R17_O=C1CN=C(c2ccccn2)c2cc(Br)ccc2N1 = 0
Total_flow_through_R18: rxnflow_R18
 - rxnfortarget_R18_O=C1CN=C(c2ccccn2)c2cc(Br)ccc2N1 = 0
Total_flow_through_R19: rxnflow_R19
 - rxnfortarget_R19_O=C1CN=C(c2ccccn2)c2cc(Br)ccc2N1 = 0
Total_flow_through_R2: rxnflow_R2
 - rxnfortarget_R2_O=C1CN=C(c2ccccn2)c2cc(Br)ccc2N1 = 0
Total_flow_through_R20: rxnflow_R20
 - rxnfortarget_R20_O=C1CN=C(c2ccccn2)c2cc(Br)ccc2N1 = 0
Total_flow_through_R21: rxnflow_R21
 - rxnfortarget_R21_O=C1CN=C(c2ccccn2)c2cc(Br)ccc2N1 = 0
Total_flow_through_R22: rxnflow_R22
 - rxnfortarget_R22_O=C1CN=C(c2ccccn2)c2cc(Br)ccc2N1 = 0
Total_flow_through_R23: rxnflow_R23
 - rxnfortarget_R23_O=C1CN=C(c2ccccn2)c2cc(Br)ccc2N1 = 0
Total_flow_through_R24: rxnflow_R24
 - rxnfortarget_R24_O=C1CN=C(c2ccccn2)c2cc(Br)ccc2N1 = 0
Total_flow_through_R25: rxnflow_R25
 - rxnfortarget_R25_O=C1CN=C(c2ccccn2)c2cc(Br)ccc2N1 = 0
Total_flow_through_R26: rxnflow_R26
 - rxnfortarget_R26_O=C1CN=C(c2ccccn2)c2cc(Br)ccc2N1 = 0
Total_flow_through_R27: rxnflow_R27
 - rxnfortarget_R27_O=C1CN=C(c2ccccn2)c2cc(Br)ccc2N1 = 0
Total_flow_through_R28: rxnflow_R28
 - rxnfortarget_R28_O=C1CN=C(c2ccccn2)c2cc(Br)ccc2N1 = 0
Total_flow_through_R29: rxnflow_R29
 - rxnfortarget_R29_O=C1CN=C(c2ccccn2)c2cc(Br)ccc2N1 = 0
Total_flow_through_R3: rxnflow_R3
 - rxnfortarget_R3_O=C1CN=C(c2ccccn2)c2cc(Br)ccc2N1 = 0
Total_flow_through_R30: rxnflow_R30
 - rxnfortarget_R30_O=C1CN=C(c2ccccn2)c2cc(Br)ccc2N1 = 0
Total_flow_through_R31: rxnflow_R31
 - rxnfortarget_R31_O=C1CN=C(c2ccccn2)c2cc(Br)ccc2N1 = 0
Total_flow_through_R32: rxnflow_R32
 - rxnfortarget_R32_O=C1CN=C(c2ccccn2)c2cc(Br)ccc2N1 = 0
Total_flow_through_R33: rxnflow_R33
 - rxnfortarget_R33_O=C1CN=C(c2ccccn2)c2cc(Br)ccc2N1 = 0
Total_flow_through_R34: rxnflow_R34
 - rxnfortarget_R34_O=C1CN=C(c2ccccn2)c2cc(Br)ccc2N1 = 0
Total_flow_through_R35: rxnflow_R35
 - rxnfortarget_R35_O=C1CN=C(c2ccccn2)c2cc(Br)ccc2N1 = 0
Total_flow_through_R36: rxnflow_R36
 - rxnfortarget_R36_O=C1CN=C(c2ccccn2)c2cc(Br)ccc2N1 = 0
Total_flow_through_R37: rxnflow_R37
 - rxnfortarget_R37_O=C1CN=C(c2ccccn2)c2cc(Br)ccc2N1 = 0
Total_flow_through_R38: rxnflow_R38
 - rxnfortarget_R38_O=C1CN=C(c2ccccn2)c2cc(Br)ccc2N1 = 0
Total_flow_through_R39: rxnflow_R39
 - rxnfortarget_R39_O=C1CN=C(c2ccccn2)c2cc(Br)ccc2N1 = 0
Total_flow_through_R4: rxnflow_R4
 - rxnfortarget_R4_O=C1CN=C(c2ccccn2)c2cc(Br)ccc2N1 = 0
Total_flow_through_R40: rxnflow_R40
 - rxnfortarget_R40_O=C1CN=C(c2ccccn2)c2cc(Br)ccc2N1 = 0
Total_flow_through_R41: rxnflow_R41
 - rxnfortarget_R41_O=C1CN=C(c2ccccn2)c2cc(Br)ccc2N1 = 0
Total_flow_through_R42: rxnflow_R42
 - rxnfortarget_R42_O=C1CN=C(c2ccccn2)c2cc(Br)ccc2N1 = 0
Total_flow_through_R43: rxnflow_R43
 - rxnfortarget_R43_O=C1CN=C(c2ccccn2)c2cc(Br)ccc2N1 = 0
Total_flow_through_R44: rxnflow_R44
 - rxnfortarget_R44_O=C1CN=C(c2ccccn2)c2cc(Br)ccc2N1 = 0
Total_flow_through_R45: rxnflow_R45
 - rxnfortarget_R45_O=C1CN=C(c2ccccn2)c2cc(Br)ccc2N1 = 0
Total_flow_through_R46: rxnflow_R46
 - rxnfortarget_R46_O=C1CN=C(c2ccccn2)c2cc(Br)ccc2N1 = 0
Total_flow_through_R47: rxnflow_R47
 - rxnfortarget_R47_O=C1CN=C(c2ccccn2)c2cc(Br)ccc2N1 = 0
Total_flow_through_R48: rxnflow_R48
 - rxnfortarget_R48_O=C1CN=C(c2ccccn2)c2cc(Br)ccc2N1 = 0
Total_flow_through_R49: rxnflow_R49
 - rxnfortarget_R49_O=C1CN=C(c2ccccn2)c2cc(Br)ccc2N1 = 0
Total_flow_through_R5: rxnflow_R5
 - rxnfortarget_R5_O=C1CN=C(c2ccccn2)c2cc(Br)ccc2N1 = 0
Total_flow_through_R50: rxnflow_R50
 - rxnfortarget_R50_O=C1CN=C(c2ccccn2)c2cc(Br)ccc2N1 = 0
Total_flow_through_R51: rxnflow_R51
 - rxnfortarget_R51_O=C1CN=C(c2ccccn2)c2cc(Br)ccc2N1 = 0
Total_flow_through_R52: rxnflow_R52
 - rxnfortarget_R52_O=C1CN=C(c2ccccn2)c2cc(Br)ccc2N1 = 0
Total_flow_through_R53: rxnflow_R53
 - rxnfortarget_R53_O=C1CN=C(c2ccccn2)c2cc(Br)ccc2N1 = 0
Total_flow_through_R54: rxnflow_R54
 - rxnfortarget_R54_O=C1CN=C(c2ccccn2)c2cc(Br)ccc2N1 = 0
Total_flow_through_R55: rxnflow_R55
 - rxnfortarget_R55_O=C1CN=C(c2ccccn2)c2cc(Br)ccc2N1 = 0
Total_flow_through_R56: rxnflow_R56
 - rxnfortarget_R56_O=C1CN=C(c2ccccn2)c2cc(Br)ccc2N1 = 0
Total_flow_through_R57: rxnflow_R57
 - rxnfortarget_R57_O=C1CN=C(c2ccccn2)c2cc(Br)ccc2N1 = 0
Total_flow_through_R58: rxnflow_R58
 - rxnfortarget_R58_O=C1CN=C(c2ccccn2)c2cc(Br)ccc2N1 = 0
Total_flow_through_R59: rxnflow_R59
 - rxnfortarget_R59_O=C1CN=C(c2ccccn2)c2cc(Br)ccc2N1 = 0
Total_flow_through_R6: rxnflow_R6
 - rxnfortarget_R6_O=C1CN=C(c2ccccn2)c2cc(Br)ccc2N1 = 0
Total_flow_through_R60: rxnflow_R60
 - rxnfortarget_R60_O=C1CN=C(c2ccccn2)c2cc(Br)ccc2N1 = 0
Total_flow_through_R61: rxnflow_R61
 - rxnfortarget_R61_O=C1CN=C(c2ccccn2)c2cc(Br)ccc2N1 = 0
Total_flow_through_R62: rxnflow_R62
 - rxnfortarget_R62_O=C1CN=C(c2ccccn2)c2cc(Br)ccc2N1 = 0
Total_flow_through_R7: rxnflow_R7
 - rxnfortarget_R7_O=C1CN=C(c2ccccn2)c2cc(Br)ccc2N1 = 0
Total_flow_through_R8: rxnflow_R8
 - rxnfortarget_R8_O=C1CN=C(c2ccccn2)c2cc(Br)ccc2N1 = 0
Total_flow_through_R9: rxnflow_R9
 - rxnfortarget_R9_O=C1CN=C(c2ccccn2)c2cc(Br)ccc2N1 = 0
Binaries
rxnflow_R0
rxnflow_R1
rxnflow_R10
rxnflow_R11
rxnflow_R12
rxnflow_R13
rxnflow_R14
rxnflow_R15
rxnflow_R16
rxnflow_R17
rxnflow_R18
rxnflow_R19
rxnflow_R2
rxnflow_R20
rxnflow_R21
rxnflow_R22
rxnflow_R23
rxnflow_R24
rxnflow_R25
rxnflow_R26
rxnflow_R27
rxnflow_R28
rxnflow_R29
rxnflow_R3
rxnflow_R30
rxnflow_R31
rxnflow_R32
rxnflow_R33
rxnflow_R34
rxnflow_R35
rxnflow_R36
rxnflow_R37
rxnflow_R38
rxnflow_R39
rxnflow_R4
rxnflow_R40
rxnflow_R41
rxnflow_R42
rxnflow_R43
rxnflow_R44
rxnflow_R45
rxnflow_R46
rxnflow_R47
rxnflow_R48
rxnflow_R49
rxnflow_R5
rxnflow_R50
rxnflow_R51
rxnflow_R52
rxnflow_R53
rxnflow_R54
rxnflow_R55
rxnflow_R56
rxnflow_R57
rxnflow_R58
rxnflow_R59
rxnflow_R6
rxnflow_R60
rxnflow_R61
rxnflow_R62
rxnflow_R7
rxnflow_R8
rxnflow_R9
rxnfortarget_R0_O=C1CN=C(c2ccccn2)c2cc(Br)ccc2N1
rxnfortarget_R10_O=C1CN=C(c2ccccn2)c2cc(Br)ccc2N1
rxnfortarget_R11_O=C1CN=C(c2ccccn2)c2cc(Br)ccc2N1
rxnfortarget_R12_O=C1CN=C(c2ccccn2)c2cc(Br)ccc2N1
rxnfortarget_R13_O=C1CN=C(c2ccccn2)c2cc(Br)ccc2N1
rxnfortarget_R14_O=C1CN=C(c2ccccn2)c2cc(Br)ccc2N1
rxnfortarget_R15_O=C1CN=C(c2ccccn2)c2cc(Br)ccc2N1
rxnfortarget_R16_O=C1CN=C(c2ccccn2)c2cc(Br)ccc2N1
rxnfortarget_R17_O=C1CN=C(c2ccccn2)c2cc(Br)ccc2N1
rxnfortarget_R18_O=C1CN=C(c2ccccn2)c2cc(Br)ccc2N1
rxnfortarget_R19_O=C1CN=C(c2ccccn2)c2cc(Br)ccc2N1
rxnfortarget_R1_O=C1CN=C(c2ccccn2)c2cc(Br)ccc2N1
rxnfortarget_R20_O=C1CN=C(c2ccccn2)c2cc(Br)ccc2N1
rxnfortarget_R21_O=C1CN=C(c2ccccn2)c2cc(Br)ccc2N1
rxnfortarget_R22_O=C1CN=C(c2ccccn2)c2cc(Br)ccc2N1
rxnfortarget_R23_O=C1CN=C(c2ccccn2)c2cc(Br)ccc2N1
rxnfortarget_R24_O=C1CN=C(c2ccccn2)c2cc(Br)ccc2N1
rxnfortarget_R25_O=C1CN=C(c2ccccn2)c2cc(Br)ccc2N1
rxnfortarget_R26_O=C1CN=C(c2ccccn2)c2cc(Br)ccc2N1
rxnfortarget_R27_O=C1CN=C(c2ccccn2)c2cc(Br)ccc2N1
rxnfortarget_R28_O=C1CN=C(c2ccccn2)c2cc(Br)ccc2N1
rxnfortarget_R29_O=C1CN=C(c2ccccn2)c2cc(Br)ccc2N1
rxnfortarget_R2_O=C1CN=C(c2ccccn2)c2cc(Br)ccc2N1
rxnfortarget_R30_O=C1CN=C(c2ccccn2)c2cc(Br)ccc2N1
rxnfortarget_R31_O=C1CN=C(c2ccccn2)c2cc(Br)ccc2N1
rxnfortarget_R32_O=C1CN=C(c2ccccn2)c2cc(Br)ccc2N1
rxnfortarget_R33_O=C1CN=C(c2ccccn2)c2cc(Br)ccc2N1
rxnfortarget_R34_O=C1CN=C(c2ccccn2)c2cc(Br)ccc2N1
rxnfortarget_R35_O=C1CN=C(c2ccccn2)c2cc(Br)ccc2N1
rxnfortarget_R36_O=C1CN=C(c2ccccn2)c2cc(Br)ccc2N1
rxnfortarget_R37_O=C1CN=C(c2ccccn2)c2cc(Br)ccc2N1
rxnfortarget_R38_O=C1CN=C(c2ccccn2)c2cc(Br)ccc2N1
rxnfortarget_R39_O=C1CN=C(c2ccccn2)c2cc(Br)ccc2N1
rxnfortarget_R3_O=C1CN=C(c2ccccn2)c2cc(Br)ccc2N1
rxnfortarget_R40_O=C1CN=C(c2ccccn2)c2cc(Br)ccc2N1
rxnfortarget_R41_O=C1CN=C(c2ccccn2)c2cc(Br)ccc2N1
rxnfortarget_R42_O=C1CN=C(c2ccccn2)c2cc(Br)ccc2N1
rxnfortarget_R43_O=C1CN=C(c2ccccn2)c2cc(Br)ccc2N1
rxnfortarget_R44_O=C1CN=C(c2ccccn2)c2cc(Br)ccc2N1
rxnfortarget_R45_O=C1CN=C(c2ccccn2)c2cc(Br)ccc2N1
rxnfortarget_R46_O=C1CN=C(c2ccccn2)c2cc(Br)ccc2N1
rxnfortarget_R47_O=C1CN=C(c2ccccn2)c2cc(Br)ccc2N1
rxnfortarget_R48_O=C1CN=C(c2ccccn2)c2cc(Br)ccc2N1
rxnfortarget_R49_O=C1CN=C(c2ccccn2)c2cc(Br)ccc2N1
rxnfortarget_R4_O=C1CN=C(c2ccccn2)c2cc(Br)ccc2N1
rxnfortarget_R50_O=C1CN=C(c2ccccn2)c2cc(Br)ccc2N1
rxnfortarget_R51_O=C1CN=C(c2ccccn2)c2cc(Br)ccc2N1
rxnfortarget_R52_O=C1CN=C(c2ccccn2)c2cc(Br)ccc2N1
rxnfortarget_R53_O=C1CN=C(c2ccccn2)c2cc(Br)ccc2N1
rxnfortarget_R54_O=C1CN=C(c2ccccn2)c2cc(Br)ccc2N1
rxnfortarget_R55_O=C1CN=C(c2ccccn2)c2cc(Br)ccc2N1
rxnfortarget_R56_O=C1CN=C(c2ccccn2)c2cc(Br)ccc2N1
rxnfortarget_R57_O=C1CN=C(c2ccccn2)c2cc(Br)ccc2N1
rxnfortarget_R58_O=C1CN=C(c2ccccn2)c2cc(Br)ccc2N1
rxnfortarget_R59_O=C1CN=C(c2ccccn2)c2cc(Br)ccc2N1
rxnfortarget_R5_O=C1CN=C(c2ccccn2)c2cc(Br)ccc2N1
rxnfortarget_R60_O=C1CN=C(c2ccccn2)c2cc(Br)ccc2N1
rxnfortarget_R61_O=C1CN=C(c2ccccn2)c2cc(Br)ccc2N1
rxnfortarget_R62_O=C1CN=C(c2ccccn2)c2cc(Br)ccc2N1
rxnfortarget_R6_O=C1CN=C(c2ccccn2)c2cc(Br)ccc2N1
rxnfortarget_R7_O=C1CN=C(c2ccccn2)c2cc(Br)ccc2N1
rxnfortarget_R8_O=C1CN=C(c2ccccn2)c2cc(Br)ccc2N1
rxnfortarget_R9_O=C1CN=C(c2ccccn2)c2cc(Br)ccc2N1
start_R0
start_R1
start_R10
start_R13
start_R14
start_R16
start_R17
start_R18
start_R20
start_R22
start_R23
start_R24
start_R26
start_R27
start_R28
start_R29
start_R3
start_R30
start_R31
start_R32
start_R4
start_R7
start_R9
target_O=C1CN=C(c2ccccn2)c2cc(Br)ccc2N1
End
